Traveling Salesman Problem/TSP_generados/Aleatorio1620392931_17.tsp
NAME: Aleatorio1620392931_17.tsp
COMMENT: Randomly generated scenario
TYPE: TSP
DIMENSION: 17
EDGE_WEIGHT_TYPE: ATT
NODE_COORD_SECTION
1 10.36 27.45
2 30.54 1.02
3 35.11 23.37
4 33.96 3.19
5 6.69 46.93
6 42.73 0.15
7 39.28 45.02
8 43.42 31.05
9 1.62 9.68
10 47.32 0.75
11 8.18 4.52
12 23.93 22.01
13 10.9 47.65
14 37.64 19.36
15 35.85 6.05
16 23.69 29.12
17 35.17 1.84
