Traveling Salesman Problem/TSP_generados/Aleatorio1620392931_17.opt.tour
NAME: Aleatorio1620392931_17.opt.tour
COMMENT: Optimal solution for Aleatorio1620392931_17 (204.5440139923324)
TYPE: TOUR
DIMENSION: 17
TOUR_SECTION
1 5 13 7 8 3 14 15 10 6 17 4 2 11 9 12 16
-1
EOF
